\ Model class2_example1-1
\ LP format - for model browsing. Use MPS format to capture full model detail.
Maximize
  + 1349.25 Constant + [ - 8.5 x[0] ^2 - 77.5 x[0] * x[1] - 97 x[0] * x[2]
   - 24 x[0] * x[3] - 43 x[0] * x[4] - 29.5 x[0] * x[5] - 72.5 x[0] * x[6]
   - 94 x[0] * x[7] - 60.5 x[0] * x[8] - 41 x[0] * x[9] - 24 x[1] ^2
   - 99 x[1] * x[2] - 14.5 x[1] * x[3] - 52 x[1] * x[4] - 45.5 x[1] * x[5]
   - 7.5 x[1] * x[6] - 56.5 x[1] * x[7] - 52.5 x[1] * x[8]
   - 61.5 x[1] * x[9] - 45.5 x[2] * x[3] - 30 x[2] * x[4] - 60 x[2] * x[5]
   - 57.5 x[2] * x[6] - 41.5 x[2] * x[7] - 75 x[2] * x[8]
   - 41.5 x[2] * x[9] - 1.5 x[3] ^2 - 75 x[3] * x[4] - 48.5 x[3] * x[5]
   - 40.5 x[3] * x[6] - 56 x[3] * x[7] - 45.5 x[3] * x[8] - 58 x[3] * x[9]
   - 14 x[4] ^2 - 97 x[4] * x[5] - 74 x[4] * x[6] - 74 x[4] * x[7]
   - 65.5 x[4] * x[8] - 64 x[4] * x[9] - 29 x[5] ^2 - 37 x[5] * x[6]
   - 13 x[5] * x[7] - 42 x[5] * x[8] - 78.5 x[5] * x[9] - 7.5 x[6] ^2
   - 66.5 x[6] * x[7] - 68.5 x[6] * x[8] - 93 x[6] * x[9] - 18 x[7] ^2
   - 63 x[7] * x[8] - 55 x[7] * x[9] - 26.5 x[8] ^2 - 48 x[8] * x[9]
   - 28 x[9] ^2 ] / 2 
Subject To
 C0[0]: - 2 y[0] + x[0] = -1
 C0[1]: - 2 y[1] + x[1] = -1
 C0[2]: - 2 y[2] + x[2] = -1
 C0[3]: - 2 y[3] + x[3] = -1
 C0[4]: - 2 y[4] + x[4] = -1
 C0[5]: - 2 y[5] + x[5] = -1
 C0[6]: - 2 y[6] + x[6] = -1
 C0[7]: - 2 y[7] + x[7] = -1
 C0[8]: - 2 y[8] + x[8] = -1
 C0[9]: - 2 y[9] + x[9] = -1
Bounds
 -1 <= x[0] <= 1
 -1 <= x[1] <= 1
 -1 <= x[2] <= 1
 -1 <= x[3] <= 1
 -1 <= x[4] <= 1
 -1 <= x[5] <= 1
 -1 <= x[6] <= 1
 -1 <= x[7] <= 1
 -1 <= x[8] <= 1
 -1 <= x[9] <= 1
 Constant = 1
Binaries
 y[0] y[1] y[2] y[3] y[4] y[5] y[6] y[7] y[8] y[9]
Generals
 x[0] x[1] x[2] x[3] x[4] x[5] x[6] x[7] x[8] x[9]
End
